50

99 29 297
96 17 288
95 10 285
95 36 299
91 40 294
91 5 300
91 43 283
90 30 279
89 3 295
86 9 292
85 38 258
85 1 261
84 12 289
79 24 271
76 37 236
69 15 258
68 34 256
68 33 269
65 11 267
64 0 270
63 12 220
58 16 216
58 29 287
54 24 296
53 7 266
52 12 287
50 10 201
49 20 283
48 4 261
48 11 240
45 12 287
45 6 282
43 19 286
42 18 240
36 10 244
35 16 199
33 4 126
31 15 285
31 7 298
30 3 207
30 12 146
30 5 167
29 10 208
27 2 267
27 12 131
26 10 81
22 10 179
22 1 245
22 1 255
21 2 211
